n_res = 3;
rcap = [22, 115, 97];
rtype = [1, 2, 2];
n_tasks = 16;
modes = [ {1, 2, 3}, {4, 5, 6}, {7, 8, 9}, {10, 11, 12}, {13, 14, 15}, {16, 17, 18}, {19, 20, 21}, {22, 23, 24}, {25, 26, 27}, {28, 29, 30}, {31, 32, 33}, {34, 35, 36}, {37, 38, 39}, {40, 41, 42}, {43, 44, 45}, {46, 47, 48} ];
succ = [ {5, 9, 13}, {4, 10, 12}, {8, 10, 13}, {11, 13}, {6, 12}, {7, 11}, {14, 16}, {12, 16}, {10, 11}, {15}, {14, 15}, {14, 15}, {16}, {}, {}, {} ];
n_opt = 48;
dur = [1, 2, 5, 1, 1, 5, 2, 3, 4, 4, 5, 7, 4, 7, 10, 3, 6, 7, 3, 5, 5, 6, 8, 9, 1, 1, 9, 2, 3, 9, 5, 6, 7, 8, 9, 10, 3, 5, 6, 2, 5, 10, 6, 7, 8, 1, 2, 5];
rreq = [|  5,  5,  5,  6,  6,  6,  8,  7,  6, 10,  8,  6,  2,  2,  2, 10, 10, 10,  4,  2,  3,  1,  1,  1,  5,  6,  1,  9,  5,  3,  6,  6,  6,  8,  8,  8,  6,  5,  5,  6,  4,  3, 10,  8,  5,  8,  7,  6
        | 10,  9,  6,  9, 10,  7,  5,  4,  3,  9,  7,  6,  9,  7,  6,  2,  1,  1,  8,  8,  7,  9,  6,  4,  8,  8,  2,  7,  6,  5,  7,  5,  2,  6,  4,  3,  7,  7,  6,  6,  5,  3,  6,  5,  5,  6,  5,  5
        |  8,  7,  6,  8,  6,  4,  9,  9,  7,  4,  4,  4, 10,  8,  8,  8,  6,  3,  4,  2,  3,  5,  4,  1,  5,  4,  4,  5,  5,  4,  5,  5,  4,  3,  3,  2,  7,  6,  5,  6,  4,  2,  4,  4,  4,  6,  5,  5 |];
